sat
(:binary-propagations  549
 :decisions            597
 :del-clause           199
 :final-checks         4
 :max-generation       1
 :max-memory           24.99
 :memory               21.43
 :mk-bool-var          1124
 :mk-clause            324
 :mk-clause-binary     724
 :num-allocs           22091920
 :num-checks           1
 :propagations         675
 :quant-instantiations 200
 :restarts             3
 :rlimit-count         346676
 :time                 0.06)
